p cnf 23 8
e 1 0
a 2 0
e 3 0
a 4 0
e 5 0
a 6 0
e 7 0
a 8 9 10 0
e 11 12 0
a 13 0
e 14 15 0
a 16 17 18 0
e 19 20 0
a 21 0
e 22 23 0
-2 -4 17 -10 8 0
-15 -7 -13 -12 0
-19 -20 4 0
23 15 0
-11 12 -2 -7 -15 0
8 -10 -1 -7 -9 0
-10 -7 5 0
6 12 -21 5 0
